
  32    4
  10   10   10   10

   0   0   0   0   0   7 2 3 4 6 8 11 14 
   9   1   1   1   0   4 15 10 7 5 
   5   4   8   4   0   6 19 17 15 13 12 10 
   2   0   8   3   1   4 15 13 12 9 
   3   4   5   0   4   5 31 19 17 16 13 
   4   0   3   2   4   2 16 7 
   4   4   4   0   2   5 31 22 19 18 12 
   3   5   4   0   6   6 31 30 21 20 19 18 
   9   3   0   3   1   6 31 29 24 22 20 19 
   7   4   0   7   6   3 31 20 16 
   6   5   3   0   3   3 21 18 16 
   3   2   4   0   5   6 30 29 25 24 21 20 
   3   0   2   5   6   5 25 22 21 20 18 
   5   0   2   2   2   5 31 30 29 21 18 
   5   4   0   2   5   5 31 30 25 22 20 
   2   2   0   3   3   5 30 29 24 23 22 
   7   4   3   5   0   4 29 25 22 20 
   3   5   6   3   0   2 24 23 
   2   5   0   8   3   3 28 27 25 
   8   3   4   0   5   2 26 23 
   7   5   0   2   3   2 26 23 
   8   4   0   3   5   3 28 27 26 
   9   4   0   8   5   2 28 27 
   3   3   4   0   3   1 26 
   6   9   6   3   0   1 26 
   5   0   6   4   4   1 32
   8   5   4   0   5   1 32
   3   5   2   6   0   1 32
   6   2   0   5   5   1 32
   8   0   4   4   5   1 32
   1   0   1   5   5   1 32
   0   0   0   0   0   0 
